objective value:                                   -4
t_n_18                                              1 	(obj:-1)
t_n_543                                             1 	(obj:-1)
t_n_880                                             1 	(obj:-1)
t_n_1503                                            1 	(obj:-1)
